/*********************************************
    * Lab01 - simple
    * Author: Coso
    * Creation Date: Mar, 2019
    *********************************************/
instance_name = "small_instance_24_simple";

d = 2;
r = 3;

SCj = [139 136];
Dk = [75 64 61];

Cjk = [[68 86 49]
 [51 75 33]];
